30 2
2 1 
1 4 2
8 11 1
11 14 2
12 15 2
22 2 2
20 22 2
16 17 2
19 23 1
16 21 2
22 0 1
1 4 1
3 8 1
11 15 1
4 5 2
20 0 1
6 9 2
22 2 1
9 14 2
16 20 2
17 19 2
14 18 2
16 20 1
11 14 2
6 6 2
2 3 1
3 6 2
2 6 1
3 5 1
4 6 2
6 8 1
